91 77
58 43
73 16
6 24
76 96
34 69
79 3
80 48
20 60
91 95
65 1
66 97
0 96
7 29
58 81
4 5
56 31
41 51
74 45
32 7
41 57
77 58
65 81
42 80
72 70
73 19
78 7
25 95
82 22
18 23
93 26
25 72
67 78
76 31
83 72
90 22
35 55
35 20
58 63
14 6
64 84
64 42
18 50
98 77
38 48
55 68
3 65
90 34
11 42
77 36
41 75
91 77